\ Model ChooChoo
\ LP format - for model browsing. Use MPS format to capture full model detail.
\ Signature: 0x80f1eed196deed62
Minimize
  22 Arc(1,1) + 10 Arc(1,2) + 10 Arc(2,1) + 22 Arc(2,2)
Subject To
 c1l(1): Arc(1,1) + Arc(1,2) <= 1
 c1l(2): Arc(2,1) + Arc(2,2) <= 1
 c1u(1): Arc(1,1) + Arc(1,2) >= 1
 c1u(2): Arc(2,1) + Arc(2,2) >= 1
 c2(1): Arc(1,2) - Arc(2,1) = 0
 c2(2): - Arc(1,2) + Arc(2,1) = 0
 c3(1): a(1) <= 48
 c3(2): a(2) <= 48
 c4(1): 500 y(1,1) + a(1) <= 502
 c4(2): 500 y(1,2) + a(2) <= 502
 c4(3): 500 y(2,1) + a(1) <= 502
 c4(4): 500 y(2,2) + a(2) <= 502
 c5(1): - 500 y(1,1) + a(1) >= -498
 c5(2): - 500 y(1,2) + a(2) >= -498
 c5(3): - 500 y(2,1) + a(1) >= -498
 c5(4): - 500 y(2,2) + a(2) >= -498
 c6(1): 500 Arc(1,1) - 500 y(1,1) <= 524
 c6(2): 500 Arc(1,2) - 500 y(1,2) - a(1) + a(2) <= 512
 c6(3): 500 Arc(2,1) - 500 y(2,1) + a(1) - a(2) <= 512
 c6(4): 500 Arc(2,2) - 500 y(2,2) <= 524
 c7(1): - 500 Arc(1,1) + 500 y(1,1) >= -476
 c7(2): - 500 Arc(1,2) + 500 y(1,2) - a(1) + a(2) >= -488
 c7(3): - 500 Arc(2,1) + 500 y(2,1) + a(1) - a(2) >= -488
 c7(4): - 500 Arc(2,2) + 500 y(2,2) >= -476
 c10(1): Arc(1,1) - y(1,1) >= 0
 c10(2): Arc(1,2) - y(1,2) >= 0
 c10(3): Arc(2,1) - y(2,1) >= 0
 c10(4): Arc(2,2) - y(2,2) >= 0
 c11(1): b(1) <= 40
 c11(2): b(2) <= 40
 c12(1): 500 y(1,1) + b(1) <= 540
 c12(2): 500 y(1,2) + b(2) <= 540
 c12(3): 500 y(2,1) + b(1) <= 540
 c12(4): 500 y(2,2) + b(2) <= 540
 c13(1): - 500 y(1,1) + b(1) >= -460
 c13(2): - 500 y(1,2) + b(2) >= -460
 c13(3): - 500 y(2,1) + b(1) >= -460
 c13(4): - 500 y(2,2) + b(2) >= -460
 c14(1): 500 Arc(1,1) - 500 y(1,1) <= 540
 c14(2): 500 Arc(1,2) - 500 y(1,2) - b(1) + b(2) <= 540
 c14(3): 500 Arc(2,1) - 500 y(2,1) + b(1) - b(2) <= 540
 c14(4): 500 Arc(2,2) - 500 y(2,2) <= 540
 c15(1): - 500 Arc(1,1) + 500 y(1,1) >= -460
 c15(2): - 500 Arc(1,2) + 500 y(1,2) - b(1) + b(2) >= -460
 c15(3): - 500 Arc(2,1) + 500 y(2,1) + b(1) - b(2) >= -460
 c15(4): - 500 Arc(2,2) + 500 y(2,2) >= -460
Bounds
Binaries
 Arc(1,1) Arc(1,2) Arc(2,1) Arc(2,2) y(1,1) y(1,2) y(2,1) y(2,2)
End
